 vasp.6.4.3 19Mar24 (build Jul 25 2024 07:57:48) complex

 executed on             LinuxIFC date 2024.10.07  13:23:39

 INCAR:
   ISPIN = 2
   ENCUT = 450
   ALGO = Normal
   EDIFF = 1E-5
   NELM = 500
   ISMEAR = 0
   SIGMA = 0.050000
   LDAU = .TRUE.
   LDAUTYPE = 2
   LDAUL = 3 -1 -1 -1
   LDAUU = 7.00 0.00 0.00 0.00
   LDAUJ = 0.70 0.00 0.00 0.00
   LDAUPRINT = 0
   LMAXMIX = 6
   IBRION = 2
   NSW = 0
   POTIM = 0.500000
   ISIF = 0
   EDIFFG = -0.050000
   NPAR = 6
   LREAL = AUTO
   NSIM = 1
   LPLANE = .TRUE.
   LAECHG = .FALSE.
   LCHARG = .FALSE.
   LWAVE = .FALSE.
   LELF = .FALSE.
   LVTOT = .FALSE.
   LVHAR = .FALSE.

 POTCAR:    PAW_PBE Ce 23Dec2003
 POTCAR:    PAW_PBE Rh_pv 25Jan2005
 POTCAR:    PAW_PBE N 08Apr2002
 POTCAR:    PAW_PBE O 08Apr2002
|           W    W    AA    RRRRR   N    N  II  N    N   GGGG   !!!           |
|           W    W   A  A   R    R  NN   N  II  NN   N  G    G  !!!           |
|           W    W  A    A  R    R  N N  N  II  N N  N  G       !!!           |
|           W WW W  AAAAAA  RRRRR   N  N N  II  N  N N  G  GGG   !            |
|           WW  WW  A    A  R   R   N   NN  II  N   NN  G    G                |
|           W    W  A    A  R    R  N    N  II  N    N   GGGG   !!!           |
|     You use a magnetic or noncollinear calculation, but did not specify     |
|     the initial magnetic moment with the MAGMOM tag. Note that a            |
|     default of 1 will be used for all atoms. This ferromagnetic setup       |
|     may break the symmetry of the crystal, in particular it may rule        |
|     out finding an antiferromagnetic solution. Thence, we recommend         |
|     setting the initial magnetic moment manually or verifying carefully     |
|     that this magnetic setup is desired.                                    |

 POTCAR:    PAW_PBE Ce 23Dec2003
   VRHFIN =Ce : [core= Kr 4d10]

   TITEL  = PAW_PBE Ce 23Dec2003
   POMASS =  140.115; ZVAL   =   12.000    mass and valenz
   ENMAX  =  273.042; ENMIN  =  204.781 eV

 POTCAR:    PAW_PBE Rh_pv 25Jan2005
   VRHFIN =Rh: 4p5s4d

   TITEL  = PAW_PBE Rh_pv 25Jan2005
   POMASS =  102.906; ZVAL   =   15.000    mass and valenz
   ENMAX  =  247.408; ENMIN  =  185.556 eV

 POTCAR:    PAW_PBE N 08Apr2002
   VRHFIN =N: s2p3

   TITEL  = PAW_PBE N 08Apr2002
   POMASS =   14.001; ZVAL   =    5.000    mass and valenz
   ENMAX  =  400.000; ENMIN  =  300.000 eV

 POTCAR:    PAW_PBE O 08Apr2002
   VRHFIN =O: s2p4

   TITEL  = PAW_PBE O 08Apr2002
   POMASS =   16.000; ZVAL   =    6.000    mass and valenz
   ENMAX  =  400.000; ENMIN  =  300.000 eV

 Optimization of the real space projectors (new method)

 maximal supplied QI-value         = 13.98
 optimisation between [QCUT,QGAM] = [ 10.77, 21.68] = [ 32.47,131.56] Ry
 Optimized for a Real-space Cutoff    1.65 Angstroem

   l    n(q)    QCUT    max X(q) W(low)/X(q) W(high)/X(q)  e(spline)
   0     11    10.768     8.553    0.18E-04    0.41E-05    0.16E-06
   0     11    10.768     8.106    0.25E-04    0.54E-05    0.33E-06
   1     10    10.768     4.160    0.11E-04    0.68E-05    0.90E-07
   1     10    10.768     3.597    0.10E-04    0.15E-04    0.17E-06
   2     10    10.768     8.183    0.23E-03    0.18E-03    0.41E-06
   2     10    10.768     6.077    0.16E-03    0.13E-03    0.30E-06
   3      9    10.768   116.013    0.24E-03    0.16E-03    0.27E-06
   3      9    10.768   108.937    0.24E-03    0.16E-03    0.27E-06
 Optimization of the real space projectors (new method)

[...]

   l    n(q)    QCUT    max X(q) W(low)/X(q) W(high)/X(q)  e(spline)
   0      8    10.807    79.467    0.34E-03    0.68E-03    0.21E-06
   0      8    10.807    66.151    0.34E-03    0.67E-03    0.21E-06
   1      7    10.807    14.030    0.45E-03    0.13E-02    0.11E-05
   1      7    10.807     9.831    0.48E-03    0.13E-02    0.11E-05
 Optimization of the real space projectors (new method)

 maximal supplied QI-value         = 24.76
 optimisation between [QCUT,QGAM] = [ 10.64, 21.54] = [ 31.73,129.89] Ry
 Optimized for a Real-space Cutoff    1.23 Angstroem

   l    n(q)    QCUT    max X(q) W(low)/X(q) W(high)/X(q)  e(spline)
   0      8    10.645    20.381    0.38E-03    0.60E-03    0.15E-06
   0      8    10.645    15.268    0.40E-03    0.65E-03    0.17E-06
   1      7    10.645     5.964    0.30E-03    0.63E-03    0.18E-06
   1      7    10.645     5.382    0.24E-03    0.53E-03    0.16E-06
  PAW_PBE Ce 23Dec2003                  :
  PAW_PBE Rh_pv 25Jan2005               :
  PAW_PBE N 08Apr2002                   :
  PAW_PBE O 08Apr2002                   :

 POSCAR:    Ce   Rh   N    O
  positions in direct lattice
  velocities in cartesian coordinates

 exchange-correlation table for PE
   RHO(1)=    0.500       N(1)  =     2000
   RHO(2)=  100.500       N(2)  =     4000

 VTST: version 4.1, (05/19/21)

 CHAIN: initializing optimizer

 OPT: Using VASP Conjugate-Gradient optimizer
 CHAIN: Read ICHAIN            0

 POSCAR:    Ce   Rh   N    O
  positions in direct lattice
  velocities in cartesian coordinates

 ion  position               nearest neighbor table
   1  0.083  0.167  0.105-  75 2.30  57 2.38  68 2.38  47 2.38  39 2.38  43 2.38  55 2.38
   2  0.333  0.167  0.105-  76 2.31  55 2.38  58 2.38  39 2.38  44 2.38  48 2.38  67 2.38
   3  0.583  0.167  0.105-  77 2.32  59 2.38  67 2.38  48 2.38  40 2.38  45 2.38  56 2.38
   4  0.833  0.167  0.105-  78 2.32  60 2.38  56 2.38  40 2.38  47 2.38  46 2.38  68 2.38
   5  0.083  0.417  0.105-  71 2.29  61 2.38  60 2.38  49 2.38  50 2.38  47 2.38  57 2.38
   6  0.333  0.417  0.105-  79 2.36  57 2.38  69 2.38  50 2.38  51 2.38  39 2.38  58 2.38
   7  0.583  0.417  0.105-  72 2.36  62 2.38  58 2.38  51 2.38  52 2.38  48 2.38  59 2.38
   8  0.833  0.417  0.105-  80 2.30  70 2.38  59 2.38  52 2.38  49 2.38  40 2.38  60 2.38
   9  0.083  0.667  0.105-  81 2.30  70 2.38  63 2.38  53 2.38  49 2.38  41 2.38  61 2.38
  10  0.333  0.667  0.105-  82 2.37  61 2.38  64 2.38  41 2.38  50 2.38  54 2.38  69 2.38
  11  0.583  0.667  0.105-  69 2.38  65 2.38  54 2.38  42 2.38  51 2.38  62 2.38  83 2.48
  12  0.833  0.667  0.105-  84 2.37  66 2.38  62 2.38  42 2.38  53 2.38  52 2.38  70 2.38
  13  0.083  0.917  0.105-  73 2.33  55 2.38  43 2.38  66 2.38  53 2.38  44 2.38  63 2.38
  14  0.333  0.917  0.105-  85 2.31  63 2.38  67 2.38  44 2.38  41 2.38  45 2.38  64 2.38
  15  0.583  0.917  0.105-  74 2.34  64 2.38  56 2.38  45 2.38  46 2.38  54 2.38  65 2.38
  16  0.833  0.917  0.105-  86 2.36  68 2.38  65 2.38  46 2.38  66 2.38  43 2.38  42 2.38
  17  0.166  0.084  0.244-  87 2.30  99 2.34  73 2.35  55 2.35  76 2.39  88 2.41  75 2.41
  18  0.416  0.083  0.244-  92 2.32  88 2.33  67 2.36  89 2.36  76 2.38  85 2.38  77 2.41
  19  0.667  0.085  0.243- 100 2.33  56 2.34  77 2.36  90 2.36  78 2.38  89 2.40  74 2.45
  20  0.920  0.086  0.243-  87 2.30  91 2.34  68 2.34  75 2.37  78 2.40  86 2.42  90 2.45
  21  0.165  0.333  0.243-  94 2.32  57 2.34  75 2.36  91 2.36  71 2.39  79 2.41  99 2.43
  22  0.412  0.324  0.243-  76 2.28  99 2.33  92 2.34  58 2.34  72 2.37  79 2.37  95 2.52
  23  0.668  0.333  0.243-  96 2.28  59 2.35 100 2.37  77 2.38  80 2.39  72 2.41  92 2.44
  24  0.917  0.333  0.242-  60 2.33  80 2.35  71 2.36  93 2.37  78 2.38  91 2.38 100 2.40
  25  0.164  0.581  0.243-  94 2.31  61 2.34  93 2.34  81 2.35  71 2.39  82 2.43 101 2.45
  26  0.409  0.580  0.245-  82 2.37  69 2.38  79 2.39  94 2.44  83 2.51  33 3.26
  27  0.672  0.579  0.245-  84 2.34  72 2.39  62 2.39  96 2.44  83 2.54
  28  0.918  0.582  0.243-  70 2.35  96 2.36  97 2.36  84 2.36  93 2.37  81 2.39  80 2.41
  29  0.166  0.832  0.244-  97 2.27 101 2.35  73 2.36  63 2.36  85 2.40  81 2.41  88 2.42
  30  0.410  0.837  0.243-  85 2.27 101 2.30  89 2.33  64 2.34  82 2.35  74 2.42  98 2.48
  31  0.670  0.842  0.241-  86 2.26  74 2.28  65 2.30  90 2.30  83 2.31
  32  0.926  0.837  0.246-  73 2.37  66 2.42  84 2.45  97 2.47  87 2.49  86 2.51 102 2.56
  33  0.536  0.581  0.359-  95 1.86  35 2.49  34 2.52  36 2.53  26 3.26
  34  0.535  0.742  0.374-  98 1.89  37 2.01  35 2.44  36 2.51  33 2.52
  35  0.693  0.743  0.372- 102 1.85  38 2.04  34 2.44  33 2.49  36 2.55
  36  0.575  0.665  0.459-  37 2.00  38 2.16  34 2.51  33 2.53  35 2.55
  37  0.597  0.803  0.452-  38 1.37  36 2.00  34 2.01
  38  0.691  0.818  0.445- 103 1.24  37 1.37  35 2.04  36 2.16
  39  0.250  0.250  0.070-   2 2.38   1 2.38   6 2.38
  40  0.750  0.250  0.070-   4 2.38   3 2.38   8 2.38
  41  0.250  0.750  0.070-  10 2.38  14 2.38   9 2.38
  42  0.750  0.750  0.070-  12 2.38  11 2.38  16 2.38
  43  0.000  0.000  0.070-  13 2.38  16 2.38   1 2.38
  44  0.250  0.000  0.070-  14 2.38  13 2.38   2 2.38
  45  0.500  0.000  0.070-  15 2.38   3 2.38  14 2.38
  46  0.750  0.000  0.070-  16 2.38  15 2.38   4 2.38
  47  0.000  0.250  0.070-   1 2.38   4 2.38   5 2.38
  48  0.500  0.250  0.070-   3 2.38   2 2.38   7 2.38
  49  0.000  0.500  0.070-   5 2.38   8 2.38   9 2.38
  50  0.250  0.500  0.070-   6 2.38  10 2.38   5 2.38
  51  0.500  0.500  0.070-   7 2.38  11 2.38   6 2.38
  52  0.750  0.500  0.070-   8 2.38   7 2.38  12 2.38
  53  0.000  0.750  0.070-   9 2.38  12 2.38  13 2.38
  54  0.500  0.750  0.070-  11 2.38  15 2.38  10 2.38
  55  0.167  0.083  0.140-  17 2.35   2 2.38  13 2.38   1 2.38
  56  0.667  0.083  0.140-  19 2.34  15 2.38   4 2.38   3 2.38
  57  0.167  0.333  0.140-  21 2.34   6 2.38   1 2.38   5 2.38
  58  0.417  0.333  0.140-  22 2.34   2 2.38   7 2.38   6 2.38
  59  0.667  0.333  0.140-  23 2.35   3 2.38   8 2.38   7 2.38
  60  0.917  0.333  0.140-  24 2.33   4 2.38   5 2.38   8 2.38
[...]
  89  0.498  1.000  0.278-  30 2.33  18 2.36  19 2.40
  90  0.748  0.001  0.279-  31 2.30  19 2.36  20 2.45
  91  1.000  0.250  0.278-  20 2.34  21 2.36  24 2.38
  92  0.496  0.245  0.279-  18 2.32  22 2.34  23 2.44
  93  0.000  0.498  0.278-  25 2.34  24 2.37  28 2.37
  94  0.237  0.494  0.279-  25 2.31  21 2.32  26 2.44
  95  0.491  0.481  0.303-  33 1.86  22 2.52
  96  0.755  0.490  0.280-  23 2.28  28 2.36  27 2.44
  97  0.009  0.746  0.281-  29 2.27  28 2.36  32 2.47
  98  0.496  0.765  0.299-  34 1.89  30 2.48
  99  0.250  0.247  0.279-  22 2.33  17 2.34  21 2.43
 100  0.749  0.248  0.278-  19 2.33  23 2.37  24 2.40
 101  0.251  0.753  0.279-  30 2.30  29 2.35  25 2.45
 102  0.760  0.759  0.301-  35 1.85  32 2.56
 103  0.767  0.879  0.471-  38 1.24

  LATTYP: Found a hexagonal cell.
 ALAT       =    15.5323886871
 C/A-ratio  =     1.4603015063

  Lattice vectors:

 A1 = (  15.5323886871,   0.0000000000,   0.0000000000)
 A2 = (  -7.7661943436,  13.4514431845,   0.0000000000)
 A3 = (   0.0000000000,   0.0000000000,  22.6819705963)

Analysis of symmetry for initial positions (statically):
 Subroutine PRICEL returns:
 Original cell was already a primitive cell.

 Routine SETGRP: Setting up the symmetry group for a
 hexagonal supercell.

 Subroutine GETGRP returns: Found  1 space group operations
 (whereof  1 operations were pure point group operations)
 out of a pool of 24 trial point group operations.

The static configuration has the point symmetry C_1 .

Analysis of symmetry for dynamics (positions and initial velocities):
 Subroutine PRICEL returns:
 Original cell was already a primitive cell.

[...]
   -.551E+01 0.103E+01 0.162E+04   0.559E+01 -.107E+01 -.162E+04   -.259E-01 0.251E-01 -.285E+01   -.393E-02 0.648E-02 0.974E-02
   0.335E+00 0.125E+02 0.162E+04   -.499E+00 -.127E+02 -.162E+04   0.864E-01 0.872E-01 -.261E+01   -.216E-01 -.282E-01 -.747E-03
   0.575E+01 -.101E+02 0.161E+04   -.584E+01 0.996E+01 -.161E+04   0.226E-01 0.878E-01 -.259E+01   0.106E-01 -.602E-01 -.177E-01
   -.657E+00 -.232E+02 0.162E+04   0.819E+00 0.234E+02 -.162E+04   -.805E-01 -.790E-01 -.264E+01   0.150E-01 -.151E-01 0.887E-03
   0.985E+01 0.386E+01 0.162E+04   -.990E+01 -.391E+01 -.162E+04   0.151E-01 0.268E-01 -.287E+01   0.323E-01 -.144E-02 0.151E-02
   0.105E+02 0.203E+02 0.163E+04   -.107E+02 -.203E+02 -.163E+04   0.119E+00 -.253E-01 -.242E+01   -.644E-01 -.212E-01 0.470E-02
   -.154E+02 0.167E+02 0.163E+04   0.153E+02 -.169E+02 -.163E+04   0.517E-01 0.159E+00 -.213E+01   -.571E-01 -.113E+00 -.167E+00
   -.469E+01 0.484E+00 0.161E+04   0.499E+01 -.504E+00 -.161E+04   -.191E+00 0.444E-01 -.277E+01   0.820E-01 -.518E-01 -.783E-01
   0.916E+01 -.436E+00 0.162E+04   -.909E+01 0.567E+00 -.161E+04   -.601E-01 -.682E-01 -.277E+01   0.664E-01 0.167E-01 -.275E-01
   0.296E+02 0.140E+02 0.164E+04   -.296E+02 -.141E+02 -.164E+04   0.147E-01 0.557E-01 -.238E+01   -.191E-01 -.305E-02 0.133E-01
   -.923E+01 0.266E+02 0.166E+04   0.885E+01 -.266E+02 -.166E+04   0.234E+00 -.508E-01 -.168E+01   -.116E+00 0.391E-01 -.112E+00
   -.279E+02 -.112E+00 0.163E+04   0.282E+02 0.699E+00 -.162E+04   -.223E+00 -.291E+00 -.212E+01   0.750E-01 0.930E-01 -.202E+00
   -.606E+01 -.697E+00 0.161E+04   0.594E+01 0.620E+00 -.161E+04   0.619E-01 0.215E-01 -.256E+01   0.154E-01 0.420E-01 -.606E-02
   0.230E+02 -.100E+02 0.163E+04   -.232E+02 0.999E+01 -.162E+04   0.673E-01 0.471E-01 -.260E+01   0.106E-01 -.243E-02 0.458E-02
   0.219E+02 -.307E+02 0.167E+04   -.221E+02 0.306E+02 -.166E+04   0.550E-01 0.274E-01 -.243E+01   -.253E-01 0.173E-01 0.726E-02
   -.388E+02 -.211E+02 0.165E+04   0.393E+02 0.210E+02 -.165E+04   -.202E+00 -.370E-01 -.238E+01   -.141E-02 0.766E-01 -.811E-02
   -.302E+02 0.103E+02 -.132E+04   0.293E+02 -.105E+02 0.132E+04   0.859E+00 0.300E+00 0.191E+01   -.153E-01 0.784E-02 0.447E-01
   0.161E+02 -.754E+01 -.133E+04   -.167E+02 0.750E+01 0.133E+04   0.543E+00 -.520E-01 0.177E+01   -.131E-02 -.485E-01 0.423E-01
   0.458E+02 -.114E+03 -.126E+04   -.455E+02 0.115E+03 0.126E+04   -.218E+00 -.100E+01 0.233E+01   0.973E-02 -.559E-01 0.597E-01
   -.274E+02 -.100E+03 -.125E+04   0.287E+02 0.101E+03 0.125E+04   -.140E+01 -.416E+00 0.221E+01   0.725E-02 -.170E-01 0.620E-01
   0.369E+02 0.551E+02 -.129E+04   -.374E+02 -.546E+02 0.129E+04   0.542E+00 -.490E+00 0.248E+01   0.155E-01 0.207E-01 0.518E-01
   -.573E+01 0.102E+03 -.120E+04   0.510E+01 -.104E+03 0.120E+04   0.377E+00 0.242E+01 0.276E+01   -.155E+00 -.880E-01 0.825E-01
   -.364E+02 0.602E+02 -.130E+04   0.372E+02 -.599E+02 0.129E+04   -.784E+00 -.638E+00 0.230E+01   0.859E-01 -.271E+00 0.472E-01
   0.644E+01 -.836E+01 -.134E+04   -.616E+01 0.857E+01 0.134E+04   -.194E+00 -.285E+00 0.294E+01   0.723E-01 -.446E-01 0.393E-01
   0.846E+02 0.153E+02 -.129E+04   -.845E+02 -.162E+02 0.129E+04   -.153E-01 0.100E+01 0.236E+01   0.812E-01 0.445E-02 0.561E-01
   0.176E+03 0.148E+03 -.912E+03   -.177E+03 -.148E+03 0.910E+03   0.110E+01 0.591E+00 0.230E+01   -.111E+00 0.168E-01 0.206E+00
   -.185E+03 0.131E+03 -.940E+03   0.186E+03 -.132E+03 0.936E+03   -.132E+01 0.824E+00 0.262E+01   -.205E+00 0.730E-01 0.175E+00
   -.706E+02 0.239E+02 -.129E+04   0.712E+02 -.233E+02 0.129E+04   -.171E+00 -.538E+00 0.231E+01   0.258E+00 0.505E-01 0.710E-01
   0.831E+01 -.260E+02 -.133E+04   -.931E+01 0.252E+02 0.132E+04   0.111E+01 0.830E+00 0.175E+01   0.411E-01 0.362E-01 0.484E-01
   0.142E+03 -.616E+02 -.115E+04   -.144E+03 0.620E+02 0.115E+04   0.257E+01 -.517E+00 0.248E+01   0.466E-01 -.240E-01 0.101E+00
   -.163E+02 -.165E+03 -.788E+03   0.166E+02 0.168E+03 0.785E+03   -.279E+00 -.241E+01 0.388E+01   -.814E-01 0.927E-01 0.238E+00
   -.156E+03 -.582E+02 -.121E+04   0.156E+03 0.587E+02 0.120E+04   -.894E+00 -.462E+00 0.233E+01   0.114E-01 0.203E+00 0.127E+00
   -.984E+00 0.106E+04 -.240E+04   0.187E+01 -.106E+04 0.240E+04   -.502E+00 -.231E+01 0.170E+01   -.284E+00 0.312E+00 0.462E+00
   0.114E+04 -.367E+03 -.237E+04   -.113E+04 0.365E+03 0.236E+04   -.433E+01 0.194E+01 0.270E+01   0.223E+00 -.110E+00 0.143E+00
   -.105E+04 -.343E+03 -.232E+04   0.105E+04 0.340E+03 0.232E+04   0.394E+01 0.316E+01 0.403E+01   -.315E+00 0.476E-01 0.294E+00
   0.143E+02 0.760E+03 -.344E+04   -.161E+02 -.756E+03 0.343E+04   0.179E+01 -.418E+01 0.903E+01   -.262E-01 0.128E+00 -.383E+00
   0.367E+03 -.380E+03 -.108E+04   -.397E+03 0.390E+03 0.109E+04   0.291E+02 -.104E+02 -.132E+02   0.296E-01 -.666E-01 -.108E+00
   -.124E+03 -.307E+03 -.933E+03   0.126E+03 0.298E+03 0.920E+03   -.170E+01 0.899E+01 0.129E+02   -.333E-01 -.847E-01 -.117E+00
   0.948E+00 0.484E+01 0.114E+04   -.994E+00 -.490E+01 -.114E+04   0.108E+00 0.125E+00 0.750E+01   -.118E-01 -.484E-02 -.291E-02
   0.364E+00 -.414E+01 0.113E+04   -.333E+00 0.416E+01 -.114E+04   -.819E-01 -.168E-01 0.757E+01   0.138E-01 -.176E-01 -.139E-01
   0.935E+01 0.377E+00 0.114E+04   -.942E+01 -.372E+00 -.115E+04   0.115E+00 -.150E-01 0.749E+01   0.769E-02 0.982E-03 -.252E-02
   -.124E+02 0.897E+00 0.115E+04   0.125E+02 -.789E+00 -.116E+04   -.250E+00 -.284E+00 0.751E+01   -.405E-02 0.379E-01 -.532E-01
   -.717E+01 -.247E+01 0.113E+04   0.724E+01 0.244E+01 -.114E+04   -.139E+00 0.134E-01 0.747E+01   0.107E-02 0.142E-01 -.382E-02
   0.204E+01 -.225E-01 0.113E+04   -.208E+01 -.161E-01 -.114E+04   0.824E-01 0.716E-01 0.744E+01   0.281E-02 -.127E-03 -.451E-02
   0.717E+01 -.773E+01 0.114E+04   -.724E+01 0.772E+01 -.115E+04   0.134E+00 0.304E-01 0.754E+01   -.371E-04 -.592E-02 -.125E-02
   -.204E+01 -.125E+02 0.115E+04   0.209E+01 0.125E+02 -.116E+04   -.781E-01 -.996E-01 0.757E+01   -.364E-02 0.121E-01 -.334E-02
   0.543E+00 -.243E+01 0.113E+04   -.498E+00 0.245E+01 -.114E+04   -.987E-01 -.393E-01 0.753E+01   0.482E-02 -.138E-02 -.563E-03
   -.185E+01 0.327E+01 0.114E+04   0.182E+01 -.336E+01 -.114E+04   0.743E-01 0.237E+00 0.754E+01   -.705E-02 -.307E-01 -.222E-01
   0.184E+01 0.772E+00 0.113E+04   -.181E+01 -.749E+00 -.114E+04   -.112E+00 -.376E-01 0.754E+01   0.237E-01 -.412E-02 -.151E-01
   0.679E+01 0.582E+01 0.114E+04   -.681E+01 -.584E+01 -.115E+04   0.666E-01 0.304E-01 0.752E+01   -.814E-02 -.140E-02 -.932E-03
   -.184E+01 0.841E+01 0.114E+04   0.172E+01 -.846E+01 -.115E+04   0.293E+00 0.134E+00 0.754E+01   -.405E-01 -.138E-01 -.428E-01
   -.678E+01 0.382E+01 0.114E+04   0.688E+01 -.382E+01 -.114E+04   -.242E+00 0.348E-01 0.763E+01   0.265E-01 -.147E-01 -.781E-01
   -.402E+01 -.943E+00 0.113E+04   0.406E+01 0.104E+01 -.114E+04   -.130E+00 -.223E+00 0.747E+01   0.219E-01 0.210E-01 -.252E-01
   0.702E+01 0.204E+01 0.116E+04   -.712E+01 -.208E+01 -.116E+04   0.255E+00 0.377E-01 0.748E+01   -.252E-01 0.934E-02 -.100E-01
   -.202E+01 0.347E+01 0.433E+03   0.207E+01 -.359E+01 -.434E+03   -.828E-01 0.209E+00 0.129E+01   -.313E-02 0.321E-02 0.530E-02
   0.717E+01 -.190E+02 0.447E+03   -.710E+01 0.190E+02 -.448E+03   -.927E-01 -.145E+00 0.183E+01   0.363E-02 -.126E-01 0.347E-02
   0.394E+01 0.433E+01 0.440E+03   -.393E+01 -.447E+01 -.442E+03   0.821E-01 0.327E+00 0.169E+01   -.219E-02 0.154E-02 0.107E-01
   -.135E+01 0.974E+01 0.453E+03   0.120E+01 -.912E+01 -.454E+03   0.323E+00 -.701E+00 0.147E+01   -.490E-01 -.408E-01 -.836E-02
   -.423E+01 0.383E+01 0.435E+03   0.427E+01 -.391E+01 -.437E+03   -.203E+00 0.275E+00 0.185E+01   0.284E-01 -.732E-01 -.458E-01
   0.156E+01 -.188E+01 0.434E+03   -.152E+01 0.199E+01 -.436E+03   -.933E-01 -.191E+00 0.177E+01   0.249E-01 -.149E-01 -.476E-02
[...]
   -.774E+01 -.173E+03 -.907E+03   0.841E+01 0.174E+03 0.915E+03   -.691E+00 -.876E+00 -.835E+01   0.284E-02 -.358E-01 0.585E-01
   0.110E+02 -.232E+02 -.101E+04   -.113E+02 0.236E+02 0.102E+04   0.214E+00 -.338E+00 -.797E+01   0.116E-01 -.785E-02 0.230E-01
   -.329E+02 0.374E+02 -.101E+04   0.340E+02 -.364E+02 0.101E+04   -.943E+00 -.776E+00 -.819E+01   -.270E-01 -.657E-01 0.416E-01
   0.705E+01 0.148E+02 -.102E+04   -.725E+01 -.150E+02 0.103E+04   -.165E-01 0.296E+00 -.803E+01   0.548E-01 -.430E-02 0.307E-01
   0.836E+02 0.586E+02 -.963E+03   -.827E+02 -.583E+02 0.971E+03   -.104E+01 -.432E+00 -.824E+01   0.299E-01 0.183E-01 0.447E-01
   -.181E+02 0.394E+03 -.750E+03   0.182E+02 -.406E+03 0.744E+03   0.516E+00 0.118E+02 0.486E+01   -.238E+00 0.621E-02 0.258E+00
   -.839E+02 0.451E+02 -.976E+03   0.842E+02 -.445E+02 0.984E+03   -.137E+01 0.618E-01 -.877E+01   0.220E+00 -.102E+00 0.196E+00
   -.354E+02 -.146E+01 -.101E+04   0.338E+02 0.108E+01 0.102E+04   0.152E+01 0.130E+00 -.821E+01   0.394E-01 0.515E-01 0.519E-01
   0.307E+03 -.111E+03 -.628E+03   -.313E+03 0.113E+03 0.618E+03   0.606E+01 -.179E+01 0.950E+01   0.491E-01 -.280E-01 0.188E+00
   0.286E+02 0.427E+02 -.100E+04   -.298E+02 -.419E+02 0.101E+04   0.118E+01 -.784E+00 -.813E+01   -.121E-01 0.128E-01 0.301E-01
   -.742E+01 -.283E+02 -.102E+04   0.789E+01 0.289E+02 0.102E+04   -.607E+00 -.441E+00 -.800E+01   0.278E-01 -.464E-01 0.304E-01
   0.797E+02 0.140E+02 -.999E+03   -.800E+02 -.156E+02 0.101E+04   0.172E+00 0.159E+01 -.820E+01   0.383E-01 0.290E-02 0.336E-01
   -.353E+03 -.974E+02 -.617E+03   0.362E+03 0.100E+03 0.606E+03   -.884E+01 -.319E+01 0.978E+01   -.115E+00 0.187E+00 0.357E+00
   -.318E+03 -.465E+03 -.115E+04   0.350E+03 0.503E+03 0.117E+04   -.327E+02 -.375E+02 -.264E+02   -.440E-01 -.737E-01 -.737E-01
   0.623E+01 0.338E+02 -.356E+02   0.284E-12 0.114E-11 -.157E-10   -.589E+01 -.338E+02 0.334E+02   -.342E+00 0.654E-01 0.208E+01

 POSITION                                       TOTAL-FORCE (eV/Angst)
     -0.00001      2.24191      2.37791         0.055173     -0.008717     -0.381522
      3.88309      2.24191      2.37791        -0.099315     -0.173476     -0.525300
      7.76619      2.24191      2.37791        -0.055914     -0.087424     -0.312429
     11.64928      2.24191      2.37791         0.096973      0.044179     -0.291885
     -1.94156      5.60477      2.37791        -0.004574     -0.025458     -0.415177
      1.94154      5.60477      2.37791        -0.056329      0.029811      0.034701
      5.82464      5.60477      2.37791        -0.104838     -0.199892     -0.329148
      9.70774      5.60477      2.37791         0.186456     -0.027569     -0.425432
     -3.88310      8.96763      2.37791         0.075843      0.078699     -0.348663
     -0.00001      8.96763      2.37791         0.022944     -0.005769      0.000938
      3.88309      8.96763      2.37791        -0.270269      0.066297      0.305405
      7.76619      8.96763      2.37791         0.212970      0.389100     -0.133643
     -5.82465     12.33049      2.37791        -0.045725     -0.013873     -0.126583
     -1.94156     12.33049      2.37791        -0.161738     -0.008920     -0.480064
      1.94154     12.33049      2.37791        -0.151735     -0.033724     -0.284291
      5.82464     12.33049      2.37791         0.325367     -0.005716      0.005361
      1.93487      1.12520      5.52497        -0.030329      0.026699      0.080552
      5.81004      1.11828      5.52909         0.012057     -0.135413      0.056785
      9.69468      1.14631      5.51028         0.088141     -0.245160      0.094050
     13.61858      1.15065      5.51301        -0.062422     -0.104196      0.096408
     -0.01698      4.47751      5.50663         0.059527      0.038038      0.080110
      3.88433      4.35307      5.50609        -0.404104      0.200379      0.420227
      7.78850      4.47596      5.51743         0.140305     -0.602951     -0.046633
     11.65140      4.47876      5.49593         0.163485     -0.110880      0.039418
     -1.96489      7.82140      5.51067         0.194299      0.074696      0.062339
      1.84478      7.80799      5.55011         0.071139      0.045640      0.456450
      5.93317      7.78936      5.55611        -0.072295     -0.027106     -0.361527
      9.73881      7.83353      5.51744         0.625064      0.117998      0.017890
     -3.88871     11.19540      5.53283         0.149669      0.075944      0.045483
     -0.12928     11.26102      5.50538         0.344967     -0.170596      0.293021
      3.86965     11.32874      5.46515        -0.045741      0.060822      0.695635
      7.88442     11.25437      5.58495        -0.250019      0.262149      0.279798
      3.81271      7.81809      8.15164         0.103551      0.037401      0.291148
      2.54715      9.97647      8.47731        -0.621447      0.071721      0.397474
      4.99089      9.98896      8.43368         0.519599      0.244503      0.871731
      3.76393      8.94929     10.41833        -0.043565      0.018596     -0.107856
      3.02863     10.80248     10.25012        -0.063695     -0.013810     -0.057420
      4.38111     10.99802     10.09855         0.017756     -0.158276     -0.389016
      1.94155      3.36286      1.58527         0.050017      0.061699      0.008196
      9.70774      3.36286      1.58527        -0.037827     -0.008797      0.031211
     -1.94155     10.08858      1.58527         0.056048     -0.009699      0.002059
      5.82465     10.08858      1.58527        -0.116774     -0.138110      0.005918
      0.00000      0.00000      1.58527        -0.067807      0.000069     -0.002832
      3.88310      0.00000      1.58527         0.036651      0.032606     -0.010560
      7.76619      0.00000      1.58527         0.065772      0.015472      0.020481
     11.64929      0.00000      1.58527        -0.034204     -0.043807      0.029339
     -1.94155      3.36286      1.58527        -0.049202     -0.020714      0.021934
      5.82465      3.36286      1.58527         0.037634      0.114514      0.016230
     -3.88310      6.72572      1.58527        -0.054826     -0.018851      0.024609
     -0.00000      6.72572      1.58527         0.034130      0.015398      0.011533
      3.88310      6.72572      1.58527         0.138308      0.071540      0.015397
      7.76619      6.72572      1.58527        -0.114675      0.017527      0.041294
     -5.82465     10.08858      1.58527        -0.067919     -0.104330     -0.005390
      1.94155     10.08858      1.58527         0.123940      0.009564     -0.003346
      1.94156      1.12095      3.17053        -0.033737      0.089228      0.216415
      9.70775      1.12095      3.17053        -0.021810     -0.135678      0.359901
      0.00001      4.48381      3.17053         0.090025      0.183096      0.249027
      3.88311      4.48381      3.17053         0.123899     -0.115121      0.156743
      7.76620      4.48381      3.17053        -0.138426      0.125667      0.422551
     11.64930      4.48381      3.17053        -0.034448     -0.103235      0.156731
[...]
     -0.02432     13.45001      6.30333        -0.036830      0.118920     -0.043448
     11.60531      0.01699      6.31717        -0.017225      0.160095     -0.089517
     13.59207      3.35739      6.29862        -0.043383      0.040306     -0.027172
      5.80516      3.30130      6.32711         0.130307      0.106011     -0.068207
     -3.86400      6.70358      6.30343        -0.164083      0.028615     -0.020022
     -0.15095      6.64481      6.33071        -0.092303     -0.043458     -0.076232
      3.88611      6.47104      6.87650         0.425034     -0.495933     -1.133591
      7.91172      6.59674      6.35674        -0.853278      0.586501     -0.171267
     -5.64727     10.02967      6.37305        -0.073612     -0.192877     -0.075206
      1.76392     10.28854      6.78671        -0.198307      0.146871     -0.615716
      1.95882      3.32338      6.31999         0.007246     -0.039918     -0.038398
      9.70780      3.33117      6.30940        -0.106991      0.152213     -0.027383
     -1.95468     10.12669      6.33535        -0.132875     -0.031333     -0.041162
      5.90197     10.21362      6.83433         0.356744     -0.296239     -1.137633
      5.08877     11.82320     10.68562         0.083166      0.119040      0.184151
    total drift:                               -0.008332      0.025804     -0.205510

  FREE ENERGIE OF THE ION-ELECTRON SYSTEM (eV)
  free  energy   TOTEN  =      -791.27623228 eV

  energy  without entropy=     -791.25663840  energy(sigma->0) =     -791.26643534

 stress matrix after NEB project (eV)
      0.00000      0.00000      0.00000
      0.00000      0.00000      0.00000
      0.00000      0.00000      0.00000
  FORCES: max atom, RMS     1.308293    0.359399
  FORCE total and by dimension    3.647502    1.137633
  Stress total and by dimension    0.000000    0.000000